7134.0
1 1 1 1 0 1 1 0 1 1 0 1 1 1 0 1 1 1 0 1 
0 0 0 0 1 0 1 1 1 2 3 2 2 3 3 5 5 5 5 5 5 5 5 5 6 6 6 6 6 6 6 8 8 8 8 8 8 8 9 9 9 9 11 11 11 11 11 11 12 13 12 13 13 12 13 15 15 12 15 12 0 15 15 15 15 16 16 17 17 17 17 17 17 19 19 19 19 19 19 19 